(declare-fun var0 () String)
(assert (str.in.re var0 (re.++ (re.+ (re.* (str.to.re "lll"))) (re.++ (re.union (re.* (str.to.re "jjj")) (re.+ (str.to.re "kkk"))) (re.++ (re.+ (re.+ (str.to.re "ii"))) (re.++ (re.+ (re.union (str.to.re "gg") (str.to.re "hhh"))) (re.++ (re.* (re.+ (str.to.re "ff"))) (re.++ (re.+ (re.union (str.to.re "dd") (str.to.re "eee"))) (re.++ (re.union (re.union (str.to.re "aaa") (str.to.re "bb")) (re.+ (str.to.re "c"))) (re.++ (re.+ (re.union (str.to.re "8") (str.to.re "9"))) (re.++ (re.+ (re.union (str.to.re "666") (str.to.re "7"))) (re.++ (re.* (re.union (str.to.re "444") (str.to.re "55"))) (re.++ (re.union (re.* (str.to.re "222")) (re.+ (str.to.re "3"))) (re.++ (re.* (re.* (str.to.re "111"))) (re.+ (re.+ (str.to.re "0")))))))))))))))))
(check-sat)